p edge 250 3113
e 0 2
e 0 11
e 0 12
e 0 27
e 0 28
e 0 93
e 0 124
e 0 137
e 0 139
e 0 150
e 0 153
e 0 180
e 0 200
e 0 212
e 0 223
e 0 232
e 0 236
e 1 15
e 1 23
e 1 24
e 1 28
e 1 50
e 1 63
e 1 64
e 1 69
e 1 72
e 1 75
e 1 86
e 1 91
e 1 103
e 1 114
e 1 115
e 1 140
e 1 149
e 1 151
e 1 168
e 1 172
e 1 178
e 1 198
e 1 200
e 1 201
e 1 205
e 1 206
e 1 212
e 1 213
e 1 218
e 1 223
e 1 227
e 1 228
e 1 239
e 2 5
e 2 11
e 2 16
e 2 22
e 2 29
e 2 33
e 2 49
e 2 51
e 2 52
e 2 71
e 2 76
e 2 89
e 2 103
e 2 106
e 2 108
e 2 109
e 2 116
e 2 118
e 2 126
e 2 129
e 2 133
e 2 134
e 2 141
e 2 157
e 2 163
e 2 168
e 2 171
e 2 176
e 2 202
e 2 208
e 2 210
e 2 214
e 2 217
e 2 222
e 2 241
e 2 242
e 3 6
e 3 9
e 3 10
e 3 15
e 3 32
e 3 39
e 3 40
e 3 69
e 3 84
e 3 89
e 3 98
e 3 105
e 3 110
e 3 130
e 3 140
e 3 154
e 3 163
e 3 167
e 3 174
e 3 176
e 3 179
e 3 194
e 3 202
e 3 207
e 3 209
e 3 220
e 3 232
e 3 242
e 3 249
e 4 13
e 4 17
e 4 19
e 4 44
e 4 68
e 4 69
e 4 70
e 4 99
e 4 113
e 4 123
e 4 130
e 4 147
e 4 172
e 4 182
e 4 183
e 4 185
e 4 201
e 4 206
e 4 212
e 4 223
e 4 231
e 4 233
e 4 240
e 5 10
e 5 17
e 5 22
e 5 27
e 5 38
e 5 49
e 5 68
e 5 78
e 5 85
e 5 88
e 5 105
e 5 107
e 5 124
e 5 126
e 5 129
e 5 153
e 5 154
e 5 170
e 5 185
e 5 191
e 5 192
e 5 207
e 5 208
e 5 230
e 5 244
e 5 249
e 6 18
e 6 24
e 6 78
e 6 79
e 6 91
e 6 99
e 6 102
e 6 138
e 6 141
e 6 147
e 6 181
e 6 189
e 6 223
e 6 224
e 6 243
e 7 11
e 7 12
e 7 13
e 7 27
e 7 35
e 7 42
e 7 46
e 7 49
e 7 56
e 7 60
e 7 72
e 7 93
e 7 99
e 7 105
e 7 119
e 7 121
e 7 142
e 7 146
e 7 147
e 7 149
e 7 191
e 7 201
e 7 213
e 7 237
e 7 242
e 7 244
e 8 21
e 8 32
e 8 41
e 8 56
e 8 68
e 8 80
e 8 86
e 8 88
e 8 134
e 8 136
e 8 143
e 8 155
e 8 159
e 8 191
e 8 192
e 8 202
e 8 218
e 8 240
e 8 247
e 9 20
e 9 21
e 9 44
e 9 48
e 9 49
e 9 50
e 9 52
e 9 59
e 9 60
e 9 71
e 9 81
e 9 104
e 9 111
e 9 112
e 9 146
e 9 149
e 9 162
e 9 164
e 9 168
e 9 172
e 9 178
e 9 188
e 9 191
e 9 197
e 9 206
e 9 208
e 9 210
e 9 213
e 9 218
e 9 225
e 9 226
e 9 238
e 10 11
e 10 14
e 10 24
e 10 26
e 10 28
e 10 33
e 10 43
e 10 45
e 10 73
e 10 74
e 10 99
e 10 123
e 10 143
e 10 144
e 10 149
e 10 174
e 10 197
e 10 210
e 10 222
e 10 224
e 10 238
e 10 246
e 11 16
e 11 56
e 11 59
e 11 67
e 11 103
e 11 105
e 11 109
e 11 119
e 11 121
e 11 123
e 11 145
e 11 150
e 11 181
e 11 196
e 11 206
e 11 220
e 11 240
e 11 249
e 12 26
e 12 50
e 12 51
e 12 63
e 12 67
e 12 80
e 12 89
e 12 98
e 12 104
e 12 105
e 12 125
e 12 153
e 12 175
e 12 197
e 12 203
e 12 217
e 12 220
e 12 226
e 12 239
e 12 243
e 13 15
e 13 18
e 13 34
e 13 49
e 13 63
e 13 73
e 13 82
e 13 103
e 13 118
e 13 144
e 13 148
e 13 159
e 13 170
e 13 181
e 13 187
e 13 190
e 13 194
e 13 201
e 13 223
e 13 224
e 14 29
e 14 40
e 14 54
e 14 65
e 14 66
e 14 72
e 14 73
e 14 84
e 14 93
e 14 139
e 14 143
e 14 148
e 14 159
e 14 168
e 14 169
e 14 172
e 14 196
e 14 199
e 14 206
e 14 211
e 14 212
e 14 234
e 14 237
e 15 24
e 15 58
e 15 78
e 15 92
e 15 112
e 15 130
e 15 153
e 15 155
e 15 156
e 15 161
e 15 168
e 15 171
e 15 181
e 15 188
e 15 190
e 15 195
e 15 204
e 15 207
e 15 213
e 15 219
e 16 19
e 16 29
e 16 32
e 16 45
e 16 48
e 16 57
e 16 81
e 16 85
e 16 93
e 16 103
e 16 107
e 16 110
e 16 127
e 16 128
e 16 132
e 16 139
e 16 148
e 16 152
e 16 157
e 16 167
e 16 169
e 16 170
e 16 173
e 16 178
e 16 193
e 16 199
e 16 202
e 16 224
e 16 238
e 17 20
e 17 24
e 17 45
e 17 46
e 17 53
e 17 55
e 17 83
e 17 84
e 17 85
e 17 89
e 17 125
e 17 128
e 17 132
e 17 145
e 17 148
e 17 151
e 17 154
e 17 173
e 17 176
e 17 185
e 17 192
e 17 206
e 17 211
e 17 248
e 18 28
e 18 36
e 18 67
e 18 68
e 18 87
e 18 90
e 18 142
e 18 156
e 18 158
e 18 179
e 18 185
e 18 188
e 18 201
e 18 207
e 18 224
e 18 233
e 18 234
e 18 238
e 19 22
e 19 68
e 19 92
e 19 113
e 19 120
e 19 132
e 19 139
e 19 148
e 19 153
e 19 158
e 19 160
e 19 163
e 19 177
e 19 186
e 19 193
e 19 219
e 19 221
e 19 223
e 20 24
e 20 36
e 20 52
e 20 53
e 20 65
e 20 69
e 20 81
e 20 91
e 20 100
e 20 102
e 20 111
e 20 122
e 20 126
e 20 133
e 20 161
e 20 162
e 20 182
e 20 187
e 20 214
e 20 245
e 21 43
e 21 52
e 21 62
e 21 64
e 21 65
e 21 68
e 21 84
e 21 85
e 21 131
e 21 145
e 21 150
e 21 172
e 21 175
e 21 204
e 21 226
e 21 236
e 21 249
e 22 52
e 22 53
e 22 65
e 22 94
e 22 96
e 22 99
e 22 100
e 22 104
e 22 125
e 22 129
e 22 130
e 22 137
e 22 159
e 22 160
e 22 165
e 22 173
e 22 175
e 22 176
e 22 185
e 22 187
e 22 192
e 22 240
e 22 244
e 22 246
e 23 26
e 23 40
e 23 44
e 23 47
e 23 48
e 23 66
e 23 75
e 23 78
e 23 88
e 23 93
e 23 103
e 23 125
e 23 128
e 23 131
e 23 139
e 23 145
e 23 147
e 23 148
e 23 150
e 23 170
e 23 174
e 23 175
e 23 187
e 23 203
e 23 206
e 23 209
e 23 217
e 23 223
e 23 226
e 23 227
e 23 233
e 23 239
e 23 245
e 23 246
e 24 34
e 24 47
e 24 48
e 24 66
e 24 95
e 24 105
e 24 109
e 24 124
e 24 126
e 24 128
e 24 129
e 24 130
e 24 139
e 24 162
e 24 163
e 24 164
e 24 167
e 24 185
e 24 196
e 24 213
e 24 241
e 25 28
e 25 31
e 25 37
e 25 38
e 25 61
e 25 77
e 25 94
e 25 101
e 25 111
e 25 117
e 25 125
e 25 126
e 25 133
e 25 137
e 25 147
e 25 160
e 25 161
e 25 179
e 25 209
e 25 210
e 25 220
e 25 233
e 25 234
e 26 29
e 26 31
e 26 38
e 26 41
e 26 45
e 26 83
e 26 91
e 26 98
e 26 105
e 26 119
e 26 128
e 26 162
e 26 170
e 26 202
e 26 207
e 26 208
e 26 209
e 26 219
e 26 220
e 26 221
e 26 233
e 27 40
e 27 46
e 27 50
e 27 58
e 27 64
e 27 67
e 27 76
e 27 80
e 27 120
e 27 121
e 27 126
e 27 129
e 27 154
e 27 158
e 27 159
e 27 165
e 27 173
e 27 176
e 27 187
e 27 194
e 27 197
e 27 202
e 27 206
e 27 221
e 27 230
e 27 231
e 27 240
e 28 40
e 28 42
e 28 64
e 28 71
e 28 72
e 28 73
e 28 76
e 28 89
e 28 90
e 28 108
e 28 112
e 28 115
e 28 132
e 28 138
e 28 146
e 28 152
e 28 154
e 28 157
e 28 170
e 28 179
e 28 192
e 28 197
e 28 211
e 28 213
e 28 231
e 28 236
e 28 239
e 29 35
e 29 36
e 29 47
e 29 64
e 29 68
e 29 70
e 29 94
e 29 98
e 29 105
e 29 111
e 29 112
e 29 117
e 29 137
e 29 140
e 29 168
e 29 169
e 29 177
e 29 179
e 29 218
e 29 220
e 29 228
e 29 237
e 29 244
e 30 56
e 30 58
e 30 59
e 30 65
e 30 68
e 30 69
e 30 77
e 30 93
e 30 115
e 30 127
e 30 132
e 30 152
e 30 158
e 30 171
e 30 180
e 30 181
e 30 197
e 30 205
e 30 215
e 30 225
e 30 237
e 30 249
e 31 48
e 31 76
e 31 92
e 31 114
e 31 127
e 31 138
e 31 158
e 31 167
e 31 199
e 31 213
e 31 214
e 31 219
e 31 227
e 31 242
e 32 39
e 32 45
e 32 51
e 32 53
e 32 58
e 32 90
e 32 91
e 32 95
e 32 102
e 32 105
e 32 117
e 32 122
e 32 130
e 32 151
e 32 159
e 32 198
e 32 203
e 32 227
e 32 228
e 32 243
e 33 44
e 33 64
e 33 68
e 33 72
e 33 94
e 33 97
e 33 100
e 33 112
e 33 113
e 33 123
e 33 133
e 33 140
e 33 161
e 33 164
e 33 166
e 33 187
e 33 189
e 33 197
e 33 207
e 33 210
e 33 224
e 33 227
e 33 234
e 34 39
e 34 46
e 34 52
e 34 55
e 34 79
e 34 102
e 34 121
e 34 131
e 34 142
e 34 163
e 34 167
e 34 189
e 34 205
e 34 219
e 34 226
e 34 240
e 34 245
e 35 38
e 35 39
e 35 40
e 35 44
e 35 58
e 35 96
e 35 103
e 35 127
e 35 141
e 35 145
e 35 149
e 35 153
e 35 161
e 35 162
e 35 177
e 35 188
e 35 201
e 35 208
e 35 212
e 35 214
e 35 225
e 35 228
e 35 236
e 36 41
e 36 48
e 36 74
e 36 82
e 36 91
e 36 121
e 36 123
e 36 130
e 36 132
e 36 145
e 36 150
e 36 151
e 36 154
e 36 176
e 36 179
e 36 205
e 36 217
e 36 230
e 36 231
e 37 45
e 37 50
e 37 63
e 37 65
e 37 70
e 37 75
e 37 81
e 37 96
e 37 103
e 37 110
e 37 112
e 37 126
e 37 143
e 37 193
e 37 199
e 37 201
e 37 212
e 37 229
e 37 240
e 37 243
e 38 39
e 38 41
e 38 60
e 38 63
e 38 75
e 38 80
e 38 102
e 38 110
e 38 113
e 38 130
e 38 160
e 38 162
e 38 172
e 38 179
e 38 196
e 38 209
e 38 220
e 38 221
e 38 227
e 38 230
e 39 40
e 39 46
e 39 49
e 39 61
e 39 62
e 39 67
e 39 69
e 39 77
e 39 78
e 39 87
e 39 128
e 39 133
e 39 136
e 39 151
e 39 164
e 39 175
e 39 177
e 39 180
e 39 184
e 39 188
e 39 191
e 39 197
e 39 200
e 39 201
e 39 224
e 39 231
e 39 240
e 39 244
e 40 65
e 40 68
e 40 69
e 40 74
e 40 84
e 40 96
e 40 97
e 40 127
e 40 138
e 40 164
e 40 165
e 40 174
e 40 179
e 40 214
e 40 220
e 40 221
e 40 231
e 40 241
e 40 249
e 41 48
e 41 55
e 41 61
e 41 62
e 41 68
e 41 70
e 41 71
e 41 86
e 41 99
e 41 131
e 41 161
e 41 162
e 41 165
e 41 169
e 41 178
e 41 201
e 41 208
e 41 219
e 41 229
e 41 237
e 41 240
e 41 241
e 41 247
e 42 52
e 42 57
e 42 68
e 42 72
e 42 75
e 42 76
e 42 101
e 42 132
e 42 135
e 42 150
e 42 157
e 42 169
e 42 194
e 42 195
e 42 214
e 42 218
e 42 220
e 42 224
e 42 225
e 42 228
e 42 230
e 42 239
e 42 246
e 42 247
e 42 248
e 42 249
e 43 56
e 43 57
e 43 60
e 43 85
e 43 90
e 43 96
e 43 108
e 43 128
e 43 129
e 43 137
e 43 138
e 43 143
e 43 150
e 43 174
e 43 183
e 43 186
e 43 210
e 43 215
e 43 221
e 43 240
e 44 45
e 44 47
e 44 54
e 44 60
e 44 87
e 44 92
e 44 94
e 44 118
e 44 125
e 44 127
e 44 135
e 44 143
e 44 147
e 44 157
e 44 185
e 44 249
e 45 67
e 45 74
e 45 75
e 45 82
e 45 89
e 45 95
e 45 106
e 45 111
e 45 124
e 45 129
e 45 134
e 45 146
e 45 171
e 45 212
e 45 234
e 45 238
e 45 245
e 45 247
e 46 66
e 46 75
e 46 83
e 46 110
e 46 132
e 46 140
e 46 175
e 46 187
e 46 195
e 46 210
e 46 217
e 46 224
e 46 230
e 46 237
e 46 244
e 47 72
e 47 73
e 47 87
e 47 96
e 47 97
e 47 139
e 47 140
e 47 143
e 47 151
e 47 153
e 47 175
e 47 183
e 47 188
e 47 191
e 47 192
e 47 198
e 47 203
e 47 206
e 47 208
e 47 215
e 47 237
e 48 59
e 48 65
e 48 69
e 48 71
e 48 83
e 48 95
e 48 104
e 48 110
e 48 132
e 48 134
e 48 146
e 48 166
e 48 168
e 48 170
e 48 175
e 48 189
e 48 202
e 48 206
e 48 217
e 49 67
e 49 73
e 49 92
e 49 93
e 49 99
e 49 104
e 49 114
e 49 131
e 49 149
e 49 160
e 49 188
e 49 189
e 49 190
e 49 199
e 49 206
e 49 214
e 49 226
e 49 232
e 49 238
e 49 241
e 50 59
e 50 67
e 50 72
e 50 86
e 50 87
e 50 119
e 50 139
e 50 142
e 50 190
e 50 200
e 50 215
e 50 224
e 50 249
e 51 61
e 51 70
e 51 93
e 51 99
e 51 107
e 51 109
e 51 118
e 51 123
e 51 126
e 51 128
e 51 129
e 51 131
e 51 139
e 51 140
e 51 146
e 51 152
e 51 161
e 51 194
e 51 202
e 51 213
e 51 236
e 51 237
e 51 242
e 52 59
e 52 66
e 52 67
e 52 70
e 52 71
e 52 88
e 52 89
e 52 92
e 52 96
e 52 105
e 52 155
e 52 165
e 52 168
e 52 169
e 52 175
e 52 183
e 52 184
e 52 187
e 52 189
e 52 204
e 52 206
e 52 208
e 52 210
e 52 214
e 52 236
e 52 243
e 52 244
e 52 246
e 53 66
e 53 69
e 53 74
e 53 75
e 53 119
e 53 129
e 53 130
e 53 138
e 53 139
e 53 145
e 53 149
e 53 158
e 53 171
e 53 174
e 53 182
e 53 191
e 53 197
e 53 199
e 53 203
e 53 223
e 53 230
e 53 231
e 53 233
e 53 238
e 53 244
e 53 245
e 54 79
e 54 83
e 54 85
e 54 121
e 54 125
e 54 145
e 54 154
e 54 184
e 54 191
e 54 210
e 54 216
e 54 220
e 54 223
e 54 235
e 54 241
e 55 63
e 55 90
e 55 91
e 55 128
e 55 139
e 55 144
e 55 160
e 55 162
e 55 186
e 55 189
e 55 190
e 55 199
e 55 200
e 55 207
e 55 212
e 55 235
e 55 244
e 55 246
e 56 66
e 56 74
e 56 79
e 56 105
e 56 115
e 56 136
e 56 141
e 56 150
e 56 167
e 56 179
e 56 181
e 56 184
e 56 192
e 56 194
e 56 202
e 56 207
e 56 208
e 56 239
e 56 246
e 56 248
e 57 95
e 57 116
e 57 129
e 57 131
e 57 135
e 57 136
e 57 141
e 57 146
e 57 154
e 57 166
e 57 180
e 57 183
e 57 190
e 57 202
e 57 205
e 57 223
e 57 238
e 57 242
e 57 244
e 57 246
e 58 60
e 58 61
e 58 80
e 58 81
e 58 82
e 58 92
e 58 97
e 58 98
e 58 117
e 58 124
e 58 135
e 58 143
e 58 144
e 58 146
e 58 148
e 58 149
e 58 161
e 58 162
e 58 174
e 58 194
e 58 199
e 58 201
e 58 219
e 58 238
e 58 241
e 59 75
e 59 78
e 59 91
e 59 92
e 59 103
e 59 105
e 59 108
e 59 113
e 59 137
e 59 139
e 59 141
e 59 151
e 59 159
e 59 171
e 59 180
e 59 209
e 59 225
e 59 233
e 59 238
e 59 247
e 60 64
e 60 86
e 60 96
e 60 126
e 60 129
e 60 169
e 60 187
e 60 190
e 60 207
e 60 237
e 61 65
e 61 66
e 61 71
e 61 102
e 61 107
e 61 112
e 61 121
e 61 154
e 61 156
e 61 160
e 61 172
e 61 210
e 61 224
e 61 225
e 61 232
e 61 233
e 61 249
e 62 70
e 62 73
e 62 92
e 62 104
e 62 115
e 62 127
e 62 136
e 62 144
e 62 173
e 62 183
e 62 216
e 62 218
e 62 225
e 62 238
e 63 88
e 63 98
e 63 117
e 63 149
e 63 150
e 63 155
e 63 159
e 63 174
e 63 179
e 63 197
e 63 211
e 63 212
e 63 218
e 63 220
e 63 227
e 63 228
e 63 237
e 63 243
e 63 249
e 64 65
e 64 72
e 64 76
e 64 82
e 64 89
e 64 96
e 64 102
e 64 115
e 64 121
e 64 122
e 64 125
e 64 149
e 64 150
e 64 165
e 64 168
e 64 176
e 64 181
e 64 201
e 64 206
e 64 231
e 64 240
e 65 67
e 65 69
e 65 78
e 65 92
e 65 94
e 65 95
e 65 103
e 65 110
e 65 116
e 65 128
e 65 131
e 65 133
e 65 142
e 65 162
e 65 177
e 65 182
e 65 184
e 65 191
e 65 199
e 65 200
e 65 207
e 65 219
e 65 223
e 65 225
e 66 79
e 66 80
e 66 84
e 66 92
e 66 103
e 66 108
e 66 110
e 66 122
e 66 126
e 66 146
e 66 151
e 66 163
e 66 185
e 66 196
e 66 204
e 66 220
e 66 222
e 66 234
e 67 82
e 67 112
e 67 115
e 67 118
e 67 130
e 67 156
e 67 159
e 67 160
e 67 161
e 67 167
e 67 168
e 67 169
e 67 187
e 67 188
e 67 192
e 67 204
e 67 213
e 67 231
e 67 233
e 67 241
e 68 76
e 68 83
e 68 87
e 68 89
e 68 92
e 68 107
e 68 124
e 68 131
e 68 140
e 68 144
e 68 155
e 68 172
e 68 189
e 68 191
e 68 195
e 68 205
e 68 217
e 68 220
e 68 224
e 68 243
e 69 106
e 69 110
e 69 112
e 69 116
e 69 130
e 69 134
e 69 142
e 69 152
e 69 156
e 69 190
e 69 202
e 69 223
e 69 239
e 69 242
e 69 247
e 69 249
e 70 72
e 70 74
e 70 101
e 70 104
e 70 116
e 70 125
e 70 133
e 70 139
e 70 159
e 70 162
e 70 165
e 70 177
e 70 188
e 70 198
e 70 208
e 70 218
e 70 229
e 70 233
e 70 235
e 70 239
e 70 244
e 71 77
e 71 82
e 71 90
e 71 121
e 71 148
e 71 157
e 71 161
e 71 165
e 71 176
e 71 184
e 71 205
e 71 217
e 72 75
e 72 85
e 72 98
e 72 115
e 72 118
e 72 123
e 72 128
e 72 130
e 72 133
e 72 149
e 72 157
e 72 165
e 72 204
e 72 208
e 72 212
e 72 214
e 72 219
e 72 222
e 72 230
e 72 233
e 72 242
e 72 247
e 73 78
e 73 92
e 73 98
e 73 108
e 73 111
e 73 128
e 73 135
e 73 149
e 73 151
e 73 155
e 73 158
e 73 164
e 73 170
e 73 199
e 73 211
e 73 212
e 73 214
e 73 217
e 74 77
e 74 102
e 74 111
e 74 115
e 74 120
e 74 133
e 74 157
e 74 161
e 74 173
e 74 190
e 74 191
e 74 195
e 74 203
e 74 205
e 74 209
e 74 216
e 74 238
e 74 246
e 75 84
e 75 100
e 75 120
e 75 146
e 75 148
e 75 154
e 75 158
e 75 178
e 75 187
e 75 194
e 75 216
e 75 223
e 75 228
e 75 231
e 75 233
e 75 236
e 76 79
e 76 87
e 76 89
e 76 121
e 76 127
e 76 146
e 76 159
e 76 164
e 76 191
e 76 194
e 76 201
e 76 221
e 76 232
e 76 236
e 76 238
e 76 239
e 76 242
e 76 244
e 77 82
e 77 90
e 77 105
e 77 106
e 77 112
e 77 118
e 77 119
e 77 154
e 77 155
e 77 163
e 77 178
e 77 189
e 77 200
e 78 84
e 78 93
e 78 94
e 78 100
e 78 134
e 78 140
e 78 156
e 78 162
e 78 188
e 78 201
e 78 213
e 78 220
e 78 226
e 78 232
e 78 242
e 79 88
e 79 95
e 79 103
e 79 107
e 79 117
e 79 125
e 79 127
e 79 150
e 79 162
e 79 165
e 79 176
e 79 183
e 79 196
e 79 205
e 79 212
e 79 215
e 79 226
e 79 229
e 79 244
e 80 99
e 80 100
e 80 105
e 80 113
e 80 121
e 80 129
e 80 131
e 80 155
e 80 160
e 80 173
e 80 175
e 80 216
e 80 219
e 80 229
e 81 96
e 81 97
e 81 98
e 81 101
e 81 114
e 81 119
e 81 122
e 81 137
e 81 173
e 81 191
e 81 192
e 81 204
e 81 210
e 81 212
e 81 219
e 81 244
e 81 245
e 82 92
e 82 111
e 82 130
e 82 134
e 82 137
e 82 141
e 82 168
e 82 209
e 82 218
e 82 219
e 82 238
e 82 245
e 83 102
e 83 109
e 83 115
e 83 135
e 83 154
e 83 157
e 83 158
e 83 169
e 83 170
e 83 174
e 83 176
e 83 177
e 83 207
e 83 217
e 83 238
e 83 241
e 84 85
e 84 88
e 84 96
e 84 99
e 84 100
e 84 109
e 84 110
e 84 125
e 84 126
e 84 127
e 84 138
e 84 139
e 84 147
e 84 148
e 84 155
e 84 207
e 84 218
e 84 219
e 84 226
e 84 227
e 85 91
e 85 94
e 85 118
e 85 133
e 85 141
e 85 142
e 85 154
e 85 158
e 85 171
e 85 173
e 85 187
e 85 198
e 85 204
e 85 210
e 85 222
e 85 228
e 85 233
e 85 242
e 86 100
e 86 117
e 86 120
e 86 123
e 86 127
e 86 134
e 86 146
e 86 217
e 86 219
e 86 221
e 86 223
e 86 229
e 86 232
e 86 243
e 86 249
e 87 107
e 87 126
e 87 134
e 87 139
e 87 140
e 87 152
e 87 153
e 87 156
e 87 170
e 87 193
e 87 196
e 87 220
e 87 221
e 87 230
e 87 233
e 87 240
e 87 244
e 88 89
e 88 95
e 88 101
e 88 118
e 88 126
e 88 136
e 88 139
e 88 141
e 88 144
e 88 147
e 88 170
e 88 178
e 88 183
e 88 186
e 88 231
e 88 238
e 89 100
e 89 103
e 89 116
e 89 129
e 89 133
e 89 158
e 89 164
e 89 165
e 89 175
e 89 210
e 89 217
e 89 232
e 89 233
e 89 234
e 89 244
e 90 127
e 90 131
e 90 135
e 90 150
e 90 156
e 90 159
e 90 171
e 90 196
e 90 197
e 90 212
e 90 215
e 90 220
e 90 223
e 90 227
e 90 228
e 90 244
e 91 132
e 91 133
e 91 135
e 91 147
e 91 162
e 91 168
e 91 173
e 91 186
e 91 221
e 91 230
e 91 237
e 91 244
e 91 246
e 91 247
e 92 117
e 92 121
e 92 130
e 92 139
e 92 142
e 92 165
e 92 168
e 92 182
e 92 199
e 92 200
e 92 209
e 92 225
e 92 231
e 92 235
e 93 103
e 93 116
e 93 120
e 93 145
e 93 149
e 93 166
e 93 170
e 93 178
e 93 186
e 93 189
e 93 195
e 93 199
e 93 201
e 93 209
e 93 210
e 93 212
e 93 223
e 93 232
e 94 98
e 94 106
e 94 107
e 94 131
e 94 135
e 94 138
e 94 144
e 94 145
e 94 153
e 94 176
e 94 246
e 94 247
e 95 118
e 95 120
e 95 124
e 95 135
e 95 139
e 95 160
e 95 162
e 95 165
e 95 170
e 95 176
e 95 182
e 95 194
e 95 202
e 95 211
e 95 221
e 95 222
e 95 225
e 96 109
e 96 121
e 96 132
e 96 143
e 96 145
e 96 162
e 96 163
e 96 166
e 96 177
e 96 189
e 96 201
e 96 207
e 96 210
e 96 215
e 96 228
e 96 233
e 96 246
e 97 120
e 97 121
e 97 137
e 97 149
e 97 154
e 97 158
e 97 167
e 97 174
e 97 191
e 97 195
e 97 210
e 97 214
e 97 225
e 97 227
e 97 230
e 97 238
e 97 248
e 98 162
e 98 167
e 98 175
e 98 217
e 98 225
e 98 227
e 99 110
e 99 112
e 99 113
e 99 117
e 99 118
e 99 125
e 99 171
e 99 175
e 99 181
e 99 182
e 99 196
e 99 199
e 99 231
e 99 238
e 99 243
e 99 245
e 99 247
e 100 112
e 100 119
e 100 126
e 100 134
e 100 137
e 100 141
e 100 147
e 100 155
e 100 158
e 100 169
e 100 176
e 100 202
e 100 206
e 100 209
e 100 210
e 100 213
e 100 223
e 100 244
e 101 104
e 101 105
e 101 119
e 101 132
e 101 139
e 101 140
e 101 149
e 101 174
e 101 187
e 101 201
e 101 228
e 101 230
e 102 105
e 102 111
e 102 133
e 102 137
e 102 145
e 102 162
e 102 165
e 102 200
e 102 205
e 102 220
e 102 221
e 102 228
e 102 230
e 102 234
e 102 245
e 103 104
e 103 105
e 103 108
e 103 118
e 103 121
e 103 128
e 103 165
e 103 168
e 103 180
e 103 183
e 103 185
e 103 190
e 103 194
e 103 196
e 103 198
e 103 207
e 103 231
e 103 249
e 104 106
e 104 117
e 104 121
e 104 133
e 104 137
e 104 146
e 104 149
e 104 161
e 104 182
e 104 199
e 104 212
e 104 227
e 105 113
e 105 114
e 105 127
e 105 129
e 105 142
e 105 150
e 105 157
e 105 169
e 105 171
e 105 183
e 105 185
e 105 188
e 105 206
e 105 214
e 105 217
e 105 223
e 105 235
e 105 239
e 105 245
e 105 248
e 106 107
e 106 114
e 106 126
e 106 135
e 106 165
e 106 169
e 106 170
e 106 181
e 106 186
e 106 195
e 106 201
e 106 210
e 106 220
e 106 240
e 106 246
e 107 125
e 107 134
e 107 151
e 107 156
e 107 157
e 107 158
e 107 167
e 107 169
e 107 171
e 107 190
e 107 221
e 107 225
e 107 227
e 108 122
e 108 127
e 108 158
e 108 163
e 108 169
e 108 176
e 108 178
e 108 180
e 108 183
e 108 194
e 108 201
e 108 210
e 108 212
e 108 217
e 108 226
e 108 244
e 109 118
e 109 125
e 109 129
e 109 139
e 109 153
e 109 164
e 109 170
e 109 179
e 109 188
e 109 192
e 109 195
e 109 196
e 109 199
e 109 241
e 109 248
e 110 120
e 110 138
e 110 174
e 110 181
e 110 196
e 110 216
e 110 244
e 111 127
e 111 133
e 111 144
e 111 149
e 111 150
e 111 165
e 111 167
e 111 171
e 111 190
e 111 196
e 111 204
e 111 206
e 111 210
e 111 212
e 111 220
e 111 228
e 111 236
e 111 238
e 111 248
e 112 114
e 112 118
e 112 127
e 112 159
e 112 160
e 112 163
e 112 187
e 112 195
e 112 217
e 112 225
e 112 236
e 112 242
e 113 140
e 113 142
e 113 144
e 113 146
e 113 151
e 113 155
e 113 159
e 113 169
e 113 181
e 113 192
e 113 197
e 113 202
e 113 212
e 113 225
e 113 230
e 114 120
e 114 152
e 114 166
e 114 187
e 114 192
e 114 215
e 114 219
e 114 242
e 115 131
e 115 133
e 115 141
e 115 145
e 115 151
e 115 166
e 115 173
e 115 177
e 115 187
e 115 213
e 115 216
e 115 223
e 115 230
e 115 232
e 115 247
e 116 126
e 116 138
e 116 148
e 116 175
e 116 188
e 116 191
e 116 194
e 116 199
e 116 202
e 116 206
e 116 211
e 116 216
e 116 217
e 116 243
e 117 124
e 117 139
e 117 149
e 117 166
e 117 174
e 117 180
e 117 183
e 117 184
e 117 194
e 117 196
e 117 198
e 117 205
e 117 215
e 117 227
e 118 121
e 118 124
e 118 153
e 118 157
e 118 158
e 118 167
e 118 176
e 118 183
e 118 195
e 118 196
e 118 207
e 118 214
e 118 221
e 118 233
e 118 243
e 118 244
e 119 129
e 119 139
e 119 152
e 119 155
e 119 169
e 119 170
e 119 179
e 119 180
e 119 186
e 119 192
e 119 199
e 119 207
e 119 210
e 119 225
e 119 227
e 119 241
e 119 244
e 120 121
e 120 127
e 120 130
e 120 159
e 120 181
e 120 183
e 120 187
e 120 207
e 120 246
e 120 247
e 121 127
e 121 146
e 121 152
e 121 158
e 121 179
e 121 185
e 121 190
e 121 191
e 121 199
e 121 211
e 121 219
e 121 235
e 121 237
e 121 241
e 122 130
e 122 139
e 122 165
e 122 174
e 122 179
e 122 188
e 122 191
e 122 193
e 122 203
e 122 213
e 122 224
e 122 233
e 122 241
e 123 127
e 123 128
e 123 129
e 123 131
e 123 132
e 123 135
e 123 145
e 123 170
e 123 171
e 123 175
e 123 184
e 123 193
e 123 199
e 123 204
e 123 205
e 123 208
e 123 221
e 123 227
e 123 228
e 123 229
e 123 232
e 124 132
e 124 147
e 124 163
e 124 167
e 124 172
e 124 184
e 124 191
e 124 193
e 124 196
e 124 215
e 124 217
e 124 235
e 124 238
e 124 239
e 124 245
e 125 130
e 125 161
e 125 172
e 125 191
e 125 197
e 125 213
e 125 221
e 125 244
e 126 132
e 126 143
e 126 147
e 126 154
e 126 157
e 126 158
e 126 166
e 126 175
e 126 176
e 126 192
e 126 228
e 126 248
e 127 132
e 127 169
e 127 172
e 127 177
e 127 192
e 127 207
e 127 221
e 127 228
e 127 230
e 127 235
e 127 243
e 128 129
e 128 131
e 128 138
e 128 163
e 128 200
e 128 204
e 128 233
e 128 235
e 128 243
e 129 140
e 129 142
e 129 153
e 129 179
e 129 189
e 129 223
e 129 227
e 129 229
e 129 235
e 129 242
e 129 243
e 130 139
e 130 145
e 130 148
e 130 170
e 130 171
e 130 173
e 130 183
e 130 184
e 130 186
e 130 206
e 130 210
e 130 214
e 130 220
e 130 226
e 130 237
e 131 142
e 131 152
e 131 155
e 131 163
e 131 179
e 131 187
e 131 190
e 131 200
e 131 203
e 131 219
e 131 221
e 131 222
e 131 233
e 131 239
e 132 152
e 132 154
e 132 157
e 132 198
e 132 214
e 132 216
e 132 224
e 132 234
e 132 242
e 132 244
e 133 143
e 133 152
e 133 167
e 133 169
e 133 170
e 133 180
e 133 184
e 133 198
e 133 208
e 133 210
e 133 216
e 133 227
e 134 157
e 134 162
e 134 172
e 134 173
e 134 179
e 134 185
e 134 200
e 134 201
e 134 211
e 134 224
e 134 229
e 134 235
e 135 139
e 135 144
e 135 149
e 135 153
e 135 173
e 135 176
e 135 183
e 135 186
e 135 193
e 135 196
e 135 205
e 135 207
e 135 228
e 135 235
e 135 248
e 136 172
e 136 178
e 136 201
e 136 202
e 136 209
e 136 212
e 136 213
e 136 224
e 136 228
e 136 230
e 137 139
e 137 142
e 137 150
e 137 153
e 137 165
e 137 171
e 137 179
e 137 181
e 137 185
e 137 190
e 137 198
e 137 200
e 137 207
e 137 210
e 137 218
e 137 221
e 137 226
e 137 227
e 137 244
e 138 149
e 138 155
e 138 157
e 138 180
e 138 189
e 138 195
e 138 201
e 138 207
e 138 209
e 138 216
e 138 225
e 138 226
e 138 230
e 138 238
e 138 246
e 139 150
e 139 155
e 139 159
e 139 164
e 139 182
e 139 201
e 139 204
e 139 212
e 139 221
e 139 243
e 139 246
e 140 153
e 140 156
e 140 175
e 140 197
e 140 198
e 140 209
e 140 224
e 140 249
e 141 148
e 141 156
e 141 234
e 142 143
e 142 151
e 142 173
e 142 174
e 142 175
e 142 190
e 142 199
e 142 211
e 142 220
e 142 229
e 142 234
e 142 243
e 142 245
e 142 249
e 143 157
e 143 158
e 143 202
e 143 219
e 143 225
e 144 175
e 144 180
e 144 192
e 144 205
e 144 208
e 144 217
e 144 230
e 144 234
e 144 240
e 144 249
e 145 147
e 145 156
e 145 159
e 145 162
e 145 167
e 145 173
e 145 186
e 145 213
e 145 226
e 145 229
e 146 149
e 146 150
e 146 155
e 146 157
e 146 162
e 146 163
e 146 166
e 146 172
e 146 179
e 146 215
e 146 224
e 146 226
e 146 231
e 147 167
e 147 231
e 147 236
e 147 242
e 147 245
e 148 151
e 148 153
e 148 155
e 148 175
e 148 192
e 148 212
e 148 217
e 148 223
e 148 226
e 148 227
e 148 230
e 148 233
e 148 240
e 148 244
e 149 168
e 149 183
e 149 186
e 149 199
e 149 216
e 149 230
e 150 163
e 150 169
e 150 179
e 150 192
e 150 206
e 150 246
e 151 170
e 151 179
e 151 228
e 151 231
e 151 233
e 151 237
e 152 154
e 152 158
e 152 169
e 152 170
e 152 171
e 152 174
e 152 177
e 152 189
e 152 194
e 152 195
e 152 208
e 152 210
e 152 211
e 152 233
e 152 236
e 152 237
e 153 158
e 153 175
e 153 177
e 153 194
e 153 199
e 153 211
e 153 222
e 153 235
e 153 236
e 153 237
e 153 245
e 154 177
e 154 181
e 154 190
e 154 196
e 154 205
e 154 208
e 154 229
e 154 238
e 154 249
e 155 172
e 155 192
e 155 194
e 155 199
e 155 216
e 155 235
e 155 237
e 156 162
e 156 165
e 156 171
e 156 185
e 156 194
e 156 199
e 156 207
e 156 222
e 156 240
e 156 242
e 156 245
e 156 248
e 157 160
e 157 163
e 157 175
e 157 179
e 157 180
e 157 183
e 157 184
e 157 193
e 157 198
e 157 200
e 157 230
e 157 237
e 158 177
e 158 179
e 158 182
e 158 197
e 158 203
e 158 217
e 158 240
e 159 179
e 159 182
e 159 194
e 159 206
e 159 207
e 159 213
e 159 221
e 159 229
e 159 234
e 159 241
e 160 162
e 160 170
e 160 174
e 160 205
e 160 210
e 160 216
e 160 223
e 161 180
e 161 199
e 161 202
e 161 209
e 161 224
e 161 226
e 161 227
e 161 229
e 161 231
e 161 245
e 162 168
e 162 178
e 162 188
e 162 203
e 162 235
e 163 165
e 163 172
e 163 187
e 163 201
e 163 211
e 163 212
e 163 219
e 163 230
e 163 246
e 164 191
e 164 221
e 164 226
e 165 193
e 165 194
e 165 200
e 165 207
e 165 213
e 165 232
e 165 236
e 166 181
e 166 209
e 166 215
e 166 220
e 167 168
e 167 171
e 167 174
e 167 176
e 167 177
e 167 197
e 167 198
e 167 218
e 167 225
e 167 228
e 167 238
e 167 242
e 167 247
e 168 187
e 168 195
e 168 234
e 168 247
e 169 174
e 169 187
e 169 199
e 169 211
e 169 213
e 170 173
e 170 197
e 170 200
e 170 201
e 170 207
e 170 215
e 170 225
e 170 232
e 170 237
e 170 238
e 170 241
e 170 246
e 171 183
e 171 218
e 171 230
e 171 236
e 171 238
e 171 239
e 171 246
e 171 248
e 172 203
e 172 218
e 172 236
e 173 177
e 173 198
e 173 204
e 173 205
e 173 220
e 173 240
e 173 249
e 174 176
e 174 198
e 174 201
e 174 211
e 174 215
e 174 227
e 174 249
e 175 176
e 175 197
e 175 200
e 175 205
e 175 208
e 175 235
e 176 177
e 176 189
e 176 194
e 176 201
e 176 206
e 176 210
e 176 225
e 177 194
e 177 208
e 177 211
e 177 212
e 177 229
e 177 233
e 178 179
e 178 181
e 178 190
e 178 204
e 178 205
e 178 206
e 178 214
e 178 217
e 178 226
e 178 238
e 178 242
e 179 198
e 179 202
e 179 215
e 179 228
e 179 238
e 179 241
e 179 243
e 179 244
e 180 198
e 180 204
e 180 214
e 180 216
e 180 229
e 180 233
e 180 242
e 180 246
e 180 247
e 180 248
e 180 249
e 181 194
e 181 198
e 181 207
e 181 211
e 181 224
e 181 233
e 182 188
e 182 196
e 182 212
e 182 225
e 182 235
e 182 249
e 183 186
e 183 189
e 183 223
e 184 189
e 184 195
e 184 201
e 184 204
e 184 205
e 184 206
e 184 215
e 184 223
e 184 228
e 184 229
e 184 244
e 184 247
e 185 227
e 185 229
e 185 231
e 186 188
e 186 193
e 186 198
e 186 213
e 186 226
e 186 227
e 186 230
e 186 237
e 187 225
e 187 245
e 187 246
e 187 249
e 188 189
e 188 190
e 188 197
e 188 200
e 188 206
e 188 213
e 188 228
e 188 230
e 188 232
e 188 242
e 189 190
e 189 193
e 189 196
e 189 202
e 189 203
e 189 204
e 189 214
e 189 233
e 189 238
e 190 206
e 190 208
e 190 215
e 190 224
e 190 245
e 191 224
e 191 225
e 191 237
e 191 239
e 191 248
e 192 201
e 192 204
e 192 215
e 192 218
e 192 222
e 192 236
e 192 238
e 192 240
e 192 246
e 192 249
e 193 194
e 193 208
e 193 214
e 193 231
e 193 241
e 193 249
e 194 204
e 194 212
e 194 213
e 194 224
e 194 232
e 194 235
e 194 239
e 194 241
e 194 243
e 195 197
e 195 200
e 195 207
e 195 213
e 195 219
e 195 220
e 195 221
e 195 229
e 195 243
e 195 244
e 195 247
e 195 249
e 196 204
e 196 213
e 196 223
e 196 240
e 197 203
e 197 206
e 197 219
e 197 222
e 197 232
e 197 245
e 197 249
e 198 202
e 198 209
e 198 212
e 198 227
e 198 240
e 198 242
e 198 244
e 199 202
e 199 205
e 199 210
e 199 240
e 200 201
e 200 205
e 200 215
e 200 235
e 200 238
e 200 245
e 201 203
e 201 205
e 201 206
e 201 221
e 201 237
e 201 243
e 202 205
e 202 212
e 202 221
e 202 229
e 202 235
e 202 247
e 203 239
e 203 241
e 203 246
e 204 205
e 204 215
e 204 233
e 204 237
e 204 238
e 204 240
e 204 249
e 205 216
e 205 228
e 205 244
e 206 208
e 206 211
e 206 215
e 206 249
e 207 217
e 207 226
e 207 238
e 208 231
e 208 248
e 209 238
e 209 242
e 209 246
e 209 248
e 210 214
e 210 217
e 210 229
e 210 246
e 210 247
e 211 231
e 211 240
e 211 243
e 212 219
e 212 234
e 212 247
e 212 248
e 213 217
e 213 240
e 213 249
e 214 217
e 214 227
e 214 236
e 215 225
e 215 245
e 215 246
e 216 222
e 216 228
e 216 238
e 216 240
e 216 241
e 216 244
e 216 249
e 218 219
e 218 229
e 218 240
e 218 247
e 219 244
e 219 245
e 219 249
e 220 222
e 220 237
e 220 244
e 221 231
e 221 235
e 221 248
e 221 249
e 222 223
e 222 229
e 222 243
e 223 233
e 223 239
e 224 232
e 224 237
e 224 240
e 224 242
e 225 226
e 225 229
e 225 230
e 225 235
e 225 244
e 225 247
e 226 234
e 226 237
e 227 232
e 227 243
e 227 244
e 227 249
e 228 230
e 228 248
e 229 237
e 231 234
e 231 239
e 231 243
e 231 245
e 231 249
e 232 243
e 232 244
e 232 247
e 234 246
e 236 244
e 237 238
e 239 249
e 245 248
